;symbolic execution tree
(push)
(assert (le x0 java.lang.reflect.Field))
(check-sat)
(push)
(assert (le x0 java.lang.reflect.Field))
(check-sat)
(push)
(assert (le x0 java.lang.reflect.Field))
(check-sat)
(push)
(assert (le x0 java.lang.reflect.Field))
(check-sat)
(push)
(assert (le x0 java.lang.reflect.Field))
(check-sat)
(pop)
(push)
(assert (not (le x0 java.lang.reflect.Field)))
(check-sat)
(pop)
(push)
(assert (le x0 java.lang.reflect.Field))
(check-sat)
(pop)
(push)
(assert (not (le x0 java.lang.reflect.Field)))
(check-sat)
(pop)
(push)
(assert (le x0 java.lang.reflect.Field))
(check-sat)
(pop)
(push)
(assert (not (le x0 java.lang.reflect.Field)))
(check-sat)
(pop)
(pop)
(push)
(assert (not (le x0 java.lang.reflect.Field)))
(check-sat)
(pop)
(pop)
(push)
(assert (not (le x0 java.lang.reflect.Field)))
(check-sat)
(pop)
(push)
(assert (le x0 java.lang.reflect.Field))
(check-sat)
(push)
(assert (le x0 java.lang.reflect.Field))
(check-sat)
(pop)
(push)
(assert (not (le x0 java.lang.reflect.Field)))
(check-sat)
(pop)
(push)
(assert (le x0 java.lang.reflect.Field))
(check-sat)
(pop)
(push)
(assert (not (le x0 java.lang.reflect.Field)))
(check-sat)
(pop)
(pop)
(push)
(assert (not (le x0 java.lang.reflect.Field)))
(check-sat)
(pop)
(push)
(assert (le x0 java.lang.reflect.Field))
(check-sat)
(pop)
(push)
(assert (not (le x0 java.lang.reflect.Field)))
(check-sat)
(pop)
(pop)
(push)
(assert (not (le x0 java.lang.reflect.Field)))
(check-sat)
(pop)
(push)
(assert (le x0 java.lang.reflect.Field))
(check-sat)
(pop)
(push)
(assert (not (le x0 java.lang.reflect.Field)))
(check-sat)
(pop)
(push)
(assert (le x0 java.lang.reflect.Field))
(check-sat)
(push)
(assert (le x0 java.lang.reflect.Field))
(check-sat)
(pop)
(push)
(assert (not (le x0 java.lang.reflect.Field)))
(check-sat)
(pop)
(pop)
(push)
(assert (not (le x0 java.lang.reflect.Field)))
(check-sat)
(pop)
(push)
(assert (le x0 java.lang.reflect.Field))
(check-sat)
(pop)
(push)
(assert (not (le x0 java.lang.reflect.Field)))
(check-sat)
(pop)
(push)
(assert (le x0 java.lang.reflect.Field))
(check-sat)
(push)
(assert (le x0 java.lang.reflect.Field))
(check-sat)
(push)
(assert (le x0 java.lang.reflect.Field))
(check-sat)
(push)
(assert (le x0 java.lang.reflect.Field))
(check-sat)
(pop)
(push)
(assert (not (le x0 java.lang.reflect.Field)))
(check-sat)
(pop)
(pop)
(push)
(assert (not (le x0 java.lang.reflect.Field)))
(check-sat)
(pop)
(pop)
(push)
(assert (not (le x0 java.lang.reflect.Field)))
(check-sat)
(pop)
(push)
(assert (le x0 java.lang.reflect.Field))
(check-sat)
(pop)
(push)
(assert (not (le x0 java.lang.reflect.Field)))
(check-sat)
(pop)
(push)
(assert (le x0 java.lang.reflect.Field))
(check-sat)
(push)
(assert (le x0 java.lang.reflect.Field))
(check-sat)
(pop)
(push)
(assert (not (le x0 java.lang.reflect.Field)))
(check-sat)
(pop)
(pop)
(push)
(assert (not (le x0 java.lang.reflect.Field)))
(check-sat)
(pop)
(push)
(assert (le x0 java.lang.reflect.Field))
(check-sat)
(pop)
(push)
(assert (not (le x0 java.lang.reflect.Field)))
(check-sat)
(pop)
(pop)
(push)
(assert (not (le x0 java.lang.reflect.Field)))
(check-sat)
(pop)
(push)
(assert (le x0 java.lang.reflect.Field))
(check-sat)
(push)
(assert (le x0 java.lang.reflect.Field))
(check-sat)
(pop)
(push)
(assert (not (le x0 java.lang.reflect.Field)))
(check-sat)
(pop)
(push)
(assert (le x0 java.lang.reflect.Field))
(check-sat)
(push)
(assert (le x0 java.lang.reflect.Field))
(check-sat)
(pop)
(push)
(assert (not (le x0 java.lang.reflect.Field)))
(check-sat)
(pop)
(push)
(assert (le x0 java.lang.reflect.Field))
(check-sat)
(pop)
(push)
(assert (not (le x0 java.lang.reflect.Field)))
(check-sat)
(pop)
(push)
(assert (le x0 java.lang.reflect.Field))
(check-sat)
(pop)
(push)
(assert (not (le x0 java.lang.reflect.Field)))
(check-sat)
(pop)
(pop)
(push)
(assert (not (le x0 java.lang.reflect.Field)))
(check-sat)
(pop)
(push)
(assert (le x0 java.lang.reflect.Field))
(check-sat)
(push)
(assert (le x0 java.lang.reflect.Field))
(check-sat)
(pop)
(push)
(assert (not (le x0 java.lang.reflect.Field)))
(check-sat)
(pop)
(pop)
(push)
(assert (not (le x0 java.lang.reflect.Field)))
(check-sat)
(pop)
(push)
(assert (le x0 java.lang.reflect.Field))
(check-sat)
(pop)
(push)
(assert (not (le x0 java.lang.reflect.Field)))
(check-sat)
(pop)
(push)
(assert (le x0 java.lang.reflect.Field))
(check-sat)
(push)
(assert (le x0 java.lang.reflect.Field))
(check-sat)
(pop)
(push)
(assert (not (le x0 java.lang.reflect.Field)))
(check-sat)
(pop)
(pop)
(push)
(assert (not (le x0 java.lang.reflect.Field)))
(check-sat)
(pop)
(pop)
(push)
(assert (not (le x0 java.lang.reflect.Field)))
(check-sat)
(pop)
(push)
(assert (le x0 java.lang.reflect.Field))
(check-sat)
(push)
(assert (le x0 java.lang.reflect.Field))
(check-sat)
(push)
(assert (le x0 java.lang.reflect.Field))
(check-sat)
(pop)
(push)
(assert (not (le x0 java.lang.reflect.Field)))
(check-sat)
(pop)
(push)
(assert (le x0 java.lang.reflect.Field))
(check-sat)
(pop)
(push)
(assert (not (le x0 java.lang.reflect.Field)))
(check-sat)
(pop)
(pop)
(push)
(assert (not (le x0 java.lang.reflect.Field)))
(check-sat)
(pop)
(pop)
(push)
(assert (not (le x0 java.lang.reflect.Field)))
(check-sat)
(pop)
(push)
(assert (le x0 java.lang.reflect.Field))
(check-sat)
(pop)
(push)
(assert (not (le x0 java.lang.reflect.Field)))
(check-sat)
(pop)
(push)
(assert (le x0 java.lang.reflect.Field))
(check-sat)
(push)
(assert (le x0 java.lang.reflect.Field))
(check-sat)
(pop)
(push)
(assert (not (le x0 java.lang.reflect.Field)))
(check-sat)
(pop)
(push)
(assert (le x0 java.lang.reflect.Field))
(check-sat)
(pop)
(push)
(assert (not (le x0 java.lang.reflect.Field)))
(check-sat)
(pop)
(pop)
(push)
(assert (not (le x0 java.lang.reflect.Field)))
(check-sat)
(pop)
(push)
(assert (le x0 java.lang.reflect.Field))
(check-sat)
(push)
(assert (le x0 java.lang.reflect.Field))
(check-sat)
(push)
(assert (le x0 java.lang.reflect.Field))
(check-sat)
(pop)
(push)
(assert (not (le x0 java.lang.reflect.Field)))
(check-sat)
(pop)
(push)
(assert (le x0 java.lang.reflect.Field))
(check-sat)
(push)
(assert (le x0 java.lang.reflect.Field))
(check-sat)
(pop)
(push)
(assert (not (le x0 java.lang.reflect.Field)))
(check-sat)
(pop)
(pop)
(push)
(assert (not (le x0 java.lang.reflect.Field)))
(check-sat)
(pop)
(push)
(assert (le x0 java.lang.reflect.Field))
(check-sat)
(pop)
(push)
(assert (not (le x0 java.lang.reflect.Field)))
(check-sat)
(pop)
(pop)
(push)
(assert (not (le x0 java.lang.reflect.Field)))
(check-sat)
(pop)
(pop)
(push)
(assert (not (le x0 java.lang.reflect.Field)))
(check-sat)
(pop)
(push)
(assert (le x0 java.lang.reflect.Field))
(check-sat)
(push)
(assert (le x0 java.lang.reflect.Field))
(check-sat)
(push)
(assert (le x0 java.lang.reflect.Field))
(check-sat)
(pop)
(push)
(assert (not (le x0 java.lang.reflect.Field)))
(check-sat)
(pop)
(push)
(assert (le x0 java.lang.reflect.Field))
(check-sat)
(pop)
(push)
(assert (not (le x0 java.lang.reflect.Field)))
(check-sat)
(pop)
(push)
(assert (le x0 java.lang.reflect.Field))
(check-sat)
(pop)
(push)
(assert (not (le x0 java.lang.reflect.Field)))
(check-sat)
(pop)
(push)
(assert (le x0 java.lang.reflect.Field))
(check-sat)
(pop)
(push)
(assert (not (le x0 java.lang.reflect.Field)))
(check-sat)
(pop)
(push)
(assert (le x0 java.lang.reflect.Field))
(check-sat)
(pop)
(push)
(assert (not (le x0 java.lang.reflect.Field)))
(check-sat)
(pop)
(pop)
(push)
(assert (not (le x0 java.lang.reflect.Field)))
(check-sat)
(pop)
(push)
(assert (le x0 java.lang.reflect.Field))
(check-sat)
(pop)
(push)
(assert (not (le x0 java.lang.reflect.Field)))
(check-sat)
(pop)
(pop)
(push)
(assert (not (le x0 java.lang.reflect.Field)))
(check-sat)
(pop)
(pop)
(push)
(assert (not (le x0 java.lang.reflect.Field)))
(check-sat)
(push)
(assert (le x0 java.lang.reflect.Field))
(check-sat)
(pop)
(push)
(assert (not (le x0 java.lang.reflect.Field)))
(check-sat)
(push)
(assert (le x0 java.lang.reflect.Field))
(check-sat)
(pop)
(push)
(assert (not (le x0 java.lang.reflect.Field)))
(check-sat)
(pop)
(push)
(assert (le x0 java.lang.reflect.Field))
(check-sat)
(pop)
(push)
(assert (not (le x0 java.lang.reflect.Field)))
(check-sat)
(push)
(assert (le x0 java.lang.reflect.Field))
(check-sat)
(pop)
(push)
(assert (not (le x0 java.lang.reflect.Field)))
(check-sat)
(pop)
(push)
(assert (le x0 java.lang.reflect.Field))
(check-sat)
(pop)
(push)
(assert (not (le x0 java.lang.reflect.Field)))
(check-sat)
(pop)
(push)
(assert (le x0 java.lang.reflect.Field))
(check-sat)
(pop)
(push)
(assert (not (le x0 java.lang.reflect.Field)))
(check-sat)
(pop)
(pop)
(push)
(assert (le x0 java.lang.reflect.Field))
(check-sat)
(pop)
(push)
(assert (not (le x0 java.lang.reflect.Field)))
(check-sat)
(push)
(assert (le x0 java.lang.reflect.Field))
(check-sat)
(pop)
(push)
(assert (not (le x0 java.lang.reflect.Field)))
(check-sat)
(pop)
(push)
(assert (le x0 java.lang.reflect.Field))
(check-sat)
(pop)
(push)
(assert (not (le x0 java.lang.reflect.Field)))
(check-sat)
(push)
(assert (le x0 java.lang.reflect.Field))
(check-sat)
(pop)
(push)
(assert (not (le x0 java.lang.reflect.Field)))
(check-sat)
(pop)
(pop)
(pop)
(push)
(assert (le x0 java.lang.reflect.Field))
(check-sat)
(pop)
(push)
(assert (not (le x0 java.lang.reflect.Field)))
(check-sat)
(pop)
(pop)
(push)
(assert (le x0 java.lang.reflect.Field))
(check-sat)
(pop)
(push)
(assert (not (le x0 java.lang.reflect.Field)))
(check-sat)
(push)
(assert (le x0 java.lang.reflect.Field))
(check-sat)
(pop)
(push)
(assert (not (le x0 java.lang.reflect.Field)))
(check-sat)
(push)
(assert (le x0 java.lang.reflect.Field))
(check-sat)
(pop)
(push)
(assert (not (le x0 java.lang.reflect.Field)))
(check-sat)
(pop)
(pop)
(push)
(assert (le x0 java.lang.reflect.Field))
(check-sat)
(pop)
(push)
(assert (not (le x0 java.lang.reflect.Field)))
(check-sat)
(pop)
(pop)
(push)
(assert (le x0 java.lang.reflect.Field))
(check-sat)
(pop)
(push)
(assert (not (le x0 java.lang.reflect.Field)))
(check-sat)
(pop)
(push)
(assert (le x0 java.lang.reflect.Field))
(check-sat)
(pop)
(push)
(assert (not (le x0 java.lang.reflect.Field)))
(check-sat)
(pop)
(push)
(assert (le x0 java.lang.reflect.Field))
(check-sat)
(pop)
(push)
(assert (not (le x0 java.lang.reflect.Field)))
(check-sat)
(push)
(assert (le x0 java.lang.reflect.Field))
(check-sat)
(pop)
(push)
(assert (not (le x0 java.lang.reflect.Field)))
(check-sat)
(push)
(assert (le x0 java.lang.reflect.Field))
(check-sat)
(pop)
(push)
(assert (not (le x0 java.lang.reflect.Field)))
(check-sat)
(push)
(assert (le x0 java.lang.reflect.Field))
(check-sat)
(pop)
(push)
(assert (not (le x0 java.lang.reflect.Field)))
(check-sat)
(pop)
(pop)
(pop)
(push)
(assert (le x0 java.lang.reflect.Field))
(check-sat)
(pop)
(push)
(assert (not (le x0 java.lang.reflect.Field)))
(check-sat)
(pop)
(pop)
(push)
(assert (le x0 java.lang.reflect.Field))
(check-sat)
(pop)
(push)
(assert (not (le x0 java.lang.reflect.Field)))
(check-sat)
(push)
(assert (le x0 java.lang.reflect.Field))
(check-sat)
(pop)
(push)
(assert (not (le x0 java.lang.reflect.Field)))
(check-sat)
(pop)
(push)
(assert (le x0 java.lang.reflect.Field))
(check-sat)
(pop)
(push)
(assert (not (le x0 java.lang.reflect.Field)))
(check-sat)
(push)
(assert (le x0 java.lang.reflect.Field))
(check-sat)
(pop)
(push)
(assert (not (le x0 java.lang.reflect.Field)))
(check-sat)
(pop)
(pop)
(pop)
(pop)
